0 0 15 
1 0 22 
2 0 29 
3 0 32 
4 0 39 
5 0 43 
6 0 44 
7 0 45 
8 0 46 
9 0 53 
10 0 60 
11 0 67 
12 0 73 
13 0 74 
14 0 79 
15 0 8 
16 0 81 
17 0 87 
18 2 12 
19 2 13 
20 2 15 
21 2 17 
22 2 20 
23 2 23 
24 2 25 
25 2 35 
26 2 38 
27 2 40 
28 2 42 
29 2 44 
30 2 47 
31 2 49 
32 2 58 
33 2 61 
34 2 63 
35 2 65 
36 2 67 
37 2 69 
38 2 71 
39 2 74 
40 2 75 
41 2 76 
42 2 82 
43 2 83 
44 2 85 
45 2 87 
46 5 11 
47 5 21 
48 5 24 
49 5 30 
50 5 35 
51 5 37 
52 5 48 
53 5 54 
54 5 59 
55 5 7 
56 5 72 
57 5 91 
58 5 93 
59 8 45 
60 8 70 
61 9 22 
62 9 27 
63 9 38 
64 9 46 
65 9 51 
66 9 63 
67 9 73 
68 10 20 
69 10 22 
70 10 27 
71 10 34 
72 10 46 
73 10 51 
74 10 58 
75 10 71 
76 11 17 
77 11 20 
78 11 22 
79 11 27 
80 11 34 
81 11 46 
82 11 5 
83 11 51 
84 11 58 
85 11 71 
86 11 77 
87 11 87 
88 11 90 
89 12 27 
90 12 45 
91 12 51 
92 12 70 
93 12 8 
94 15 11 
95 15 21 
96 15 30 
97 15 35 
98 15 37 
99 15 45 
100 15 54 
101 15 59 
102 15 70 
103 15 72 
104 15 91 
105 15 93 
106 17 13 
107 17 14 
108 17 15 
109 17 61 
110 17 83 
111 17 84 
112 17 85 
113 18 17 
114 18 28 
115 18 29 
116 18 31 
117 18 32 
118 18 52 
119 18 53 
120 18 55 
121 18 56 
122 18 87 
123 25 13 
124 25 15 
125 25 22 
126 25 24 
127 25 27 
128 25 29 
129 25 32 
130 25 34 
131 25 35 
132 25 37 
133 25 39 
134 25 43 
135 25 45 
136 25 47 
137 25 48 
138 25 50 
139 25 52 
140 25 54 
141 25 57 
142 25 60 
143 25 62 
144 25 64 
145 25 66 
146 25 68 
147 25 70 
148 25 72 
149 25 74 
150 25 84 
151 28 18 
152 28 23 
153 28 28 
154 28 32 
155 28 57 
156 28 59 
157 28 79 
158 28 8 
159 28 84 
160 28 88 
161 28 91 
162 28 95 
163 32 21 
164 32 26 
165 32 76 
166 33 21 
167 33 26 
168 33 31 
169 33 56 
170 33 76 
171 33 83 
172 34 17 
173 34 21 
174 34 26 
175 34 31 
176 34 39 
177 34 52 
178 34 56 
179 34 60 
180 34 67 
181 34 68 
182 34 75 
183 34 76 
184 34 83 
185 34 86 
186 34 89 
187 34 9 
188 35 5 
189 35 76 
190 38 18 
191 38 32 
192 38 57 
193 38 59 
194 38 67 
195 38 75 
196 38 79 
197 38 8 
198 38 84 
199 40 35 
200 40 36 
201 40 37 
202 40 43 
203 40 45 
204 40 48 
205 40 49 
206 40 50 
207 41 39 
208 41 77 
209 41 78 
210 41 80 
211 41 81 
212 48 11 
213 48 18 
214 48 22 
215 48 23 
216 48 24 
217 48 25 
218 48 27 
219 48 29 
220 48 30 
221 48 33 
222 48 34 
223 48 47 
224 48 48 
225 48 52 
226 48 55 
227 48 56 
228 48 58 
229 48 60 
230 48 68 
231 48 69 
232 48 70 
233 48 77 
234 48 79 
235 48 81 
236 48 83 
237 48 93 
238 48 95 
239 49 49 
240 51 30 
241 51 34 
242 51 52 
243 51 54 
244 51 6 
245 51 64 
246 51 78 
247 51 8 
248 51 82 
249 51 88 
250 54 27 
251 55 27 
252 55 30 
253 55 34 
254 55 67 
255 55 76 
256 56 28 
257 56 32 
258 56 51 
259 56 76 
260 57 27 
261 57 36 
262 57 5 
263 57 51 
264 57 60 
265 57 63 
266 57 71 
267 57 76 
268 57 89 
269 58 85 
270 60 0 
271 60 101 
272 61 0 
273 61 101 
274 61 29 
275 61 33 
276 61 52 
277 61 54 
278 61 6 
279 61 64 
280 61 8 
281 61 88 
282 62 0 
283 62 101 
284 63 11 
285 63 22 
286 63 23 
287 63 24 
288 63 25 
289 63 56 
290 63 57 
291 63 58 
292 64 18 
293 64 46 
294 64 49 
295 64 60 
296 71 25 
297 71 39 
298 71 40 
299 71 42 
300 71 44 
301 71 46 
302 71 49 
303 71 51 
304 71 54 
305 71 56 
306 71 58 
307 71 60 
308 71 62 
309 71 64 
310 71 67 
311 71 9 
312 74 30 
313 74 33 
314 74 37 
315 74 49 
316 74 51 
317 74 55 
318 74 59 
319 74 6 
320 74 63 
321 74 67 
322 74 71 
323 74 79 
324 74 87 
325 74 95 
326 77 75 
327 77 81 
328 77 89 
329 78 53 
330 78 68 
331 78 75 
332 78 81 
333 78 89 
334 79 48 
335 79 53 
336 79 68 
337 79 75 
338 79 81 
339 79 89 
340 80 15 
341 80 28 
342 80 31 
343 80 44 
344 80 48 
345 80 5 
346 80 53 
347 80 68 
348 80 75 
349 80 82 
350 80 90 
351 81 68 
352 81 75 
353 81 92 
354 84 49 
355 84 51 
356 84 6 
357 84 71 
358 84 95 
359 86 40 
360 86 41 
361 86 42 
362 86 9 
363 87 25 
364 87 69 
365 87 70 
366 87 72 
367 87 73 
368 87 76 
369 87 77 
370 87 79 
371 87 80 
372 87 81 
373 87 84 
374 87 85 
375 87 87 
376 87 88 
377 87 89 
378 94 16 
379 94 17 
380 94 41 
381 94 42 
382 94 48 
383 94 49 
384 94 55 
385 94 56 
386 94 60 
387 94 62 
388 94 64 
389 94 66 
390 94 68 
391 94 70 
392 94 96 
393 94 97 
394 95 18 
395 95 98 
396 97 101 
397 97 61 
398 97 65 
399 97 69 
400 97 75 
401 97 81 
402 101 59 
403 101 72 
404 102 59 
405 102 72 
406 103 20 
407 103 5 
408 103 59 
409 103 72 
410 103 85 
411 104 72 
412 107 75 
413 107 81 
414 108 0 
415 108 101 
416 109 41 
417 109 49 
418 109 55 
419 110 15 
420 110 18 
421 110 40 
422 110 48 
423 110 56 
424 110 73 
425 110 75 
426 110 76 
427 110 77 
428 110 79 
429 110 81 
430 110 82 
431 110 83 
432 110 95 
433 110 98 
434 122 45 
435 122 73 
